c Command line: hgen8 170 90
p cnf 170 261
52 166 39 125 0
70 79 106 169 0
24 107 136 69 0
103 126 53 101 0
104 131 16 155 0
66 5 161 170 0
22 12 151 97 0
27 13 144 108 0
143 158 87 113 0
62 114 15 23 0
73 18 130 63 0
115 92 105 1 0
165 21 83 49 0
119 124 123 68 0
65 159 72 137 0
32 138 56 135 0
148 84 25 142 0
46 58 43 86 0
94 150 64 61 0
129 163 44 90 0
14 118 41 157 0
132 117 98 128 0
76 71 48 100 0
55 168 7 34 0
75 80 111 2 0
152 36 33 162 0
42 8 127 57 0
112 51 147 20 0
19 4 167 133 0
40 28 121 26 0
47 95 99 145 0
60 30 11 149 0
116 74 89 17 0
10 50 110 38 0
81 120 91 6 0
-1 -2 0
-1 -4 0
-1 -5 0
-2 -4 0
-2 -5 0
-4 -5 0
-6 -7 0
-6 -8 0
-6 -10 0
-7 -8 0
-7 -10 0
-8 -10 0
-11 -12 0
-11 -13 0
-11 -14 0
-11 -15 0
-12 -13 0
-12 -14 0
-12 -15 0
-13 -14 0
-13 -15 0
-14 -15 0
-16 -17 0
-16 -18 0
-16 -19 0
-16 -20 0
-17 -18 0
-17 -19 0
-17 -20 0
-18 -19 0
-18 -20 0
-19 -20 0
-21 -22 0
-21 -23 0
-21 -24 0
-21 -25 0
-22 -23 0
-22 -24 0
-22 -25 0
-23 -24 0
-23 -25 0
-24 -25 0
-26 -27 0
-26 -28 0
-26 -30 0
-27 -28 0
-27 -30 0
-28 -30 0
-32 -33 0
-32 -34 0
-33 -34 0
-36 -38 0
-36 -39 0
-36 -40 0
-38 -39 0
-38 -40 0
-39 -40 0
-41 -42 0
-41 -43 0
-41 -44 0
-42 -43 0
-42 -44 0
-43 -44 0
-46 -47 0
-46 -48 0
-46 -49 0
-46 -50 0
-47 -48 0
-47 -49 0
-47 -50 0
-48 -49 0
-48 -50 0
-49 -50 0
-51 -52 0
-51 -53 0
-51 -55 0
-52 -53 0
-52 -55 0
-53 -55 0
-56 -57 0
-56 -58 0
-56 -60 0
-57 -58 0
-57 -60 0
-58 -60 0
-61 -62 0
-61 -63 0
-61 -64 0
-61 -65 0
-62 -63 0
-62 -64 0
-62 -65 0
-63 -64 0
-63 -65 0
-64 -65 0
-66 -68 0
-66 -69 0
-66 -70 0
-68 -69 0
-68 -70 0
-69 -70 0
-71 -72 0
-71 -73 0
-71 -74 0
-71 -75 0
-72 -73 0
-72 -74 0
-72 -75 0
-73 -74 0
-73 -75 0
-74 -75 0
-76 -79 0
-76 -80 0
-79 -80 0
-81 -83 0
-81 -84 0
-83 -84 0
-86 -87 0
-86 -89 0
-86 -90 0
-87 -89 0
-87 -90 0
-89 -90 0
-91 -92 0
-91 -94 0
-91 -95 0
-92 -94 0
-92 -95 0
-94 -95 0
-97 -98 0
-97 -99 0
-97 -100 0
-98 -99 0
-98 -100 0
-99 -100 0
-101 -103 0
-101 -104 0
-101 -105 0
-103 -104 0
-103 -105 0
-104 -105 0
-106 -107 0
-106 -108 0
-106 -110 0
-107 -108 0
-107 -110 0
-108 -110 0
-111 -112 0
-111 -113 0
-111 -114 0
-111 -115 0
-112 -113 0
-112 -114 0
-112 -115 0
-113 -114 0
-113 -115 0
-114 -115 0
-116 -117 0
-116 -118 0
-116 -119 0
-116 -120 0
-117 -118 0
-117 -119 0
-117 -120 0
-118 -119 0
-118 -120 0
-119 -120 0
-121 -123 0
-121 -124 0
-121 -125 0
-123 -124 0
-123 -125 0
-124 -125 0
-126 -127 0
-126 -128 0
-126 -129 0
-126 -130 0
-127 -128 0
-127 -129 0
-127 -130 0
-128 -129 0
-128 -130 0
-129 -130 0
-131 -132 0
-131 -133 0
-131 -135 0
-132 -133 0
-132 -135 0
-133 -135 0
-136 -137 0
-136 -138 0
-137 -138 0
-142 -143 0
-142 -144 0
-142 -145 0
-143 -144 0
-143 -145 0
-144 -145 0
-147 -148 0
-147 -149 0
-147 -150 0
-148 -149 0
-148 -150 0
-149 -150 0
-151 -152 0
-151 -155 0
-152 -155 0
-157 -158 0
-157 -159 0
-158 -159 0
-161 -162 0
-161 -163 0
-161 -165 0
-162 -163 0
-162 -165 0
-163 -165 0
-166 -167 0
-166 -168 0
-166 -169 0
-166 -170 0
-167 -168 0
-167 -169 0
-167 -170 0
-168 -169 0
-168 -170 0
-169 -170 0
